931
1 0 5 910 1 914 1 913 1 912 1 903 1
2 0 5 881 1 40 1 582 1 113 1 72 1
3 0 5 730 1 103 1 447 1 422 1 117 1
4 0 5 212 1 825 1 800 1 796 1 786 1
5 0 5 894 1 196 1 294 1 330 1 609 1
6 0 5 852 1 815 1 216 1 393 1 81 1
7 0 5 45 1 792 1 836 1 603 1 621 1
8 0 5 709 1 849 1 578 1 73 1 877 1
9 0 5 564 1 154 1 714 1 256 1 401 1
10 0 5 705 1 830 1 60 1 798 1 79 1
11 0 5 149 1 627 1 657 1 207 1 46 1
12 0 5 47 1 664 1 682 1 893 1 504 1
13 0 5 1 1 913 1 912 1 911 1 897 1
14 0 5 75 1 677 1 76 1 524 1 799 1
15 0 5 715 1 870 1 70 1 533 1 435 1
16 0 5 59 1 413 1 892 1 129 1 213 1
17 0 5 228 1 421 1 311 1 699 1 502 1
18 0 5 481 1 687 1 723 1 493 1 706 1
19 0 5 107 1 185 1 434 1 482 1 230 1
20 0 5 646 1 250 1 77 1 681 1 257 1
21 0 5 90 1 171 1 362 1 160 1 739 1
22 0 5 267 1 756 1 522 1 206 1 606 1
23 0 5 750 1 194 1 125 1 882 1 71 1
24 0 5 353 1 729 1 313 1 405 1 416 1
25 0 5 173 1 393 1 535 1 96 1 847 1
26 0 5 245 1 618 1 178 1 80 1 827 1
27 0 5 843 1 738 1 215 1 119 1 48 1
28 0 5 511 1 44 1 621 1 431 1 440 1
29 0 5 620 1 56 1 358 1 573 1 705 1
30 0 5 695 1 31 1 694 1 569 1 168 1
31 0 5 30 1 131 1 695 1 569 1 694 1
32 0 5 359 1 690 1 227 1 436 1 386 1
33 0 5 262 1 762 1 749 1 323 1 691 1
34 0 5 736 1 584 1 322 1 312 1 286 1
35 0 5 579 1 255 1 333 1 555 1 408 1
36 0 5 574 1 697 1 850 1 480 1 516 1
37 0 5 586 1 551 1 575 1 326 1 654 1
38 0 5 101 1 633 1 640 1 135 1 404 1
39 0 5 62 1 148 1 888 1 751 1 236 1
40 0 5 2 1 607 1 145 1 881 1 738 1
41 0 5 537 1 189 1 724 1 138 1 521 1
42 0 5 565 1 741 1 498 1 357 1 702 1
43 0 5 668 1 781 1 410 1 241 1 671 1
44 0 5 511 1 28 1 621 1 431 1 440 1
45 0 5 7 1 844 1 621 1 511 1 44 1
46 0 5 858 1 627 1 657 1 11 1 149 1
47 0 5 12 1 664 1 682 1 504 1 614 1
48 0 5 354 1 363 1 215 1 843 1 27 1
49 0 5 866 1 368 1 402 1 597 1 666 1
50 0 5 96 1 393 1 847 1 369 1 173 1
51 0 5 722 1 485 1 306 1 188 1 744 1
52 0 5 209 1 839 1 767 1 205 1 544 1
53 0 5 259 1 625 1 623 1 364 1 711 1
54 0 5 816 1 885 1 202 1 232 1 78 1
55 0 5 381 1 755 1 385 1 468 1 386 1
56 0 5 358 1 833 1 29 1 170 1 853 1
57 0 5 654 1 239 1 551 1 647 1 37 1
58 0 5 606 1 291 1 756 1 803 1 282 1
59 0 5 16 1 129 1 413 1 892 1 453 1
60 0 5 474 1 489 1 10 1 830 1 348 1
61 0 5 426 1 702 1 357 1 560 1 179 1
62 0 5 39 1 751 1 832 1 178 1 148 1
63 0 5 713 1 153 1 343 1 673 1 611 1
64 0 5 692 1 270 1 630 1 493 1 18 1
65 0 5 143 1 273 1 100 1 718 1 147 1
66 0 5 233 1 563 1 254 1 258 1 352 1
67 0 5 719 1 133 1 336 1 675 1 851 1
68 0 5 612 1 247 1 308 1 400 1 330 1
69 0 5 857 1 648 1 283 1 472 1 256 1
70 0 5 796 1 715 1 15 1 777 1 533 1
71 0 5 237 1 557 1 125 1 23 1 387 1
72 0 5 881 1 669 1 145 1 229 1 304 1
73 0 5 709 1 578 1 307 1 225 1 674 1
74 0 5 701 1 891 1 801 1 157 1 651 1
75 0 5 14 1 76 1 677 1 524 1 799 1
76 0 5 788 1 152 1 75 1 172 1 524 1
77 0 5 20 1 279 1 399 1 132 1 681 1
78 0 5 876 1 202 1 817 1 816 1 54 1
79 0 5 445 1 821 1 121 1 798 1 181 1
80 0 5 178 1 245 1 439 1 630 1 860 1
81 0 5 815 1 598 1 852 1 223 1 6 1
82 0 5 864 1 807 1 764 1 564 1 856 1
83 0 5 176 1 818 1 660 1 536 1 442 1
84 0 5 789 1 773 1 144 1 786 1 800 1
85 0 5 795 1 495 1 156 1 887 1 873 1
86 0 5 775 1 718 1 563 1 254 1 273 1
87 0 5 208 1 803 1 804 1 733 1 291 1
88 0 5 514 1 781 1 410 1 269 1 822 1
89 0 5 772 1 226 1 272 1 629 1 549 1
90 0 5 160 1 21 1 238 1 141 1 171 1
91 0 5 506 1 375 1 802 1 159 1 211 1
92 0 5 863 1 528 1 99 1 683 1 684 1
93 0 5 619 1 585 1 498 1 328 1 310 1
94 0 5 465 1 149 1 302 1 689 1 370 1
95 0 5 837 1 441 1 602 1 644 1 685 1
96 0 5 847 1 173 1 50 1 142 1 393 1
97 0 5 275 1 492 1 789 1 773 1 218 1
98 0 5 848 1 482 1 415 1 886 1 289 1
99 0 5 174 1 201 1 183 1 92 1 405 1
100 0 5 273 1 65 1 842 1 143 1 466 1
101 0 5 38 1 452 1 438 1 814 1 541 1
102 0 5 494 1 417 1 361 1 890 1 231 1
103 0 5 3 1 311 1 117 1 527 1 422 1
104 0 5 127 1 566 1 729 1 289 1 716 1
105 0 5 659 1 469 1 758 1 806 1 100 1
106 0 5 187 1 868 1 492 1 218 1 535 1
107 0 5 19 1 230 1 434 1 122 1 185 1
108 0 5 731 1 727 1 352 1 257 1 292 1
109 0 5 355 1 581 1 458 1 317 1 542 1
110 0 5 450 1 488 1 240 1 588 1 567 1
111 0 5 585 1 310 1 490 1 328 1 93 1
112 0 5 660 1 224 1 647 1 613 1 605 1
113 0 5 582 1 388 1 360 1 229 1 150 1
114 0 5 223 1 118 1 140 1 641 1 598 1
115 0 5 590 1 639 1 263 1 635 1 184 1
116 0 5 562 1 721 1 713 1 153 1 51 1
117 0 5 311 1 3 1 422 1 527 1 103 1
118 0 5 114 1 140 1 223 1 641 1 271 1
119 0 5 545 1 834 1 843 1 27 1 354 1
120 0 5 766 1 705 1 79 1 121 1 445 1
121 0 5 445 1 79 1 120 1 181 1 842 1
122 0 5 434 1 652 1 230 1 451 1 107 1
123 0 5 456 1 433 1 525 1 403 1 517 1
124 0 5 186 1 659 1 283 1 469 1 857 1
125 0 5 882 1 23 1 710 1 829 1 750 1
126 0 5 533 1 332 1 568 1 15 1 846 1
127 0 5 104 1 180 1 347 1 289 1 415 1
128 0 5 418 1 768 1 787 1 827 1 374 1
129 0 5 59 1 892 1 453 1 16 1 413 1
130 0 5 292 1 512 1 724 1 138 1 731 1
131 0 5 804 1 31 1 569 1 650 1 695 1
132 0 5 195 1 279 1 77 1 654 1 239 1
133 0 5 675 1 851 1 67 1 719 1 336 1
134 0 5 157 1 886 1 107 1 74 1 891 1
135 0 5 633 1 553 1 725 1 38 1 101 1
136 0 5 487 1 634 1 518 1 154 1 401 1
137 0 5 730 1 318 1 556 1 117 1 874 1
138 0 5 724 1 842 1 414 1 130 1 143 1
139 0 5 744 1 784 1 853 1 593 1 485 1
140 0 5 118 1 114 1 268 1 641 1 271 1
141 0 5 754 1 90 1 160 1 238 1 547 1
142 0 5 96 1 393 1 847 1 216 1 271 1
143 0 5 414 1 842 1 65 1 147 1 138 1
144 0 5 800 1 84 1 789 1 773 1 868 1
145 0 5 881 1 72 1 738 1 631 1 735 1
146 0 5 306 1 51 1 784 1 722 1 153 1
147 0 5 254 1 414 1 143 1 352 1 138 1
148 0 5 236 1 745 1 39 1 888 1 508 1
149 0 5 94 1 11 1 689 1 449 1 688 1
150 0 5 360 1 388 1 113 1 819 1 748 1
151 0 5 636 1 539 1 676 1 468 1 477 1
152 0 5 655 1 76 1 788 1 470 1 288 1
153 0 5 713 1 562 1 63 1 343 1 721 1
154 0 5 401 1 9 1 136 1 714 1 532 1
155 0 5 670 1 437 1 459 1 740 1 765 1
156 0 5 376 1 737 1 795 1 243 1 85 1
157 0 5 734 1 134 1 886 1 392 1 74 1
158 0 5 211 1 367 1 802 1 322 1 91 1
159 0 5 802 1 677 1 91 1 375 1 506 1
160 0 5 238 1 90 1 488 1 141 1 21 1
161 0 5 515 1 366 1 662 1 507 1 520 1
162 0 5 163 1 344 1 865 1 840 1 776 1
163 0 5 162 1 693 1 448 1 865 1 559 1
164 0 5 345 1 182 1 407 1 228 1 743 1
165 0 5 720 1 391 1 594 1 382 1 327 1
166 0 5 588 1 691 1 676 1 262 1 636 1
167 0 5 780 1 700 1 222 1 624 1 226 1
168 0 5 484 1 694 1 608 1 775 1 823 1
169 0 5 203 1 175 1 659 1 186 1 823 1
170 0 5 833 1 757 1 681 1 252 1 853 1
171 0 5 362 1 21 1 739 1 265 1 90 1
172 0 5 810 1 788 1 524 1 76 1 658 1
173 0 5 25 1 96 1 393 1 847 1 535 1
174 0 5 99 1 201 1 405 1 313 1 397 1
175 0 5 823 1 484 1 169 1 659 1 105 1
176 0 5 83 1 660 1 818 1 635 1 315 1
177 0 5 192 1 276 1 339 1 711 1 108 1
178 0 5 80 1 26 1 62 1 782 1 687 1
179 0 5 797 1 712 1 426 1 667 1 357 1
180 0 5 269 1 822 1 244 1 523 1 127 1
181 0 5 349 1 445 1 309 1 79 1 121 1
182 0 5 826 1 164 1 228 1 387 1 345 1
183 0 5 683 1 314 1 99 1 174 1 491 1
184 0 5 639 1 263 1 336 1 675 1 115 1
185 0 5 19 1 434 1 482 1 748 1 122 1
186 0 5 124 1 845 1 169 1 544 1 659 1
187 0 5 341 1 725 1 337 1 284 1 106 1
188 0 5 51 1 197 1 895 1 593 1 722 1
189 0 5 537 1 41 1 705 1 724 1 358 1
190 0 5 525 1 327 1 720 1 661 1 123 1
191 0 5 597 1 281 1 874 1 301 1 666 1
192 0 5 177 1 711 1 276 1 339 1 742 1
193 0 5 372 1 233 1 591 1 765 1 526 1
194 0 5 750 1 23 1 685 1 95 1 837 1
195 0 5 613 1 132 1 224 1 239 1 647 1
196 0 5 5 1 894 1 797 1 308 1 741 1
197 0 5 895 1 326 1 593 1 575 1 485 1
198 0 5 411 1 286 1 395 1 219 1 367 1
199 0 5 340 1 278 1 543 1 535 1 643 1
200 0 5 730 1 318 1 556 1 930 1 909 1
201 0 5 174 1 397 1 684 1 99 1 405 1
202 0 5 232 1 78 1 54 1 816 1 632 1
203 0 5 169 1 650 1 695 1 569 1 845 1
204 0 5 412 1 550 1 408 1 568 1 419 1
205 0 5 209 1 650 1 52 1 845 1 131 1
206 0 5 22 1 267 1 756 1 606 1 58 1
207 0 5 380 1 627 1 759 1 11 1 94 1
208 0 5 87 1 606 1 803 1 804 1 877 1
209 0 5 205 1 52 1 390 1 131 1 839 1
210 0 5 649 1 507 1 887 1 407 1 345 1
211 0 5 158 1 802 1 322 1 91 1 367 1
212 0 5 4 1 862 1 642 1 825 1 796 1
213 0 5 427 1 371 1 587 1 16 1 453 1
214 0 5 753 1 501 1 872 1 432 1 266 1
215 0 5 363 1 48 1 843 1 27 1 354 1
216 0 5 641 1 271 1 6 1 142 1 140 1
217 0 5 834 1 878 1 354 1 858 1 545 1
218 0 5 868 1 187 1 672 1 746 1 553 1
219 0 5 460 1 367 1 198 1 411 1 395 1
220 0 5 808 1 523 1 244 1 410 1 735 1
221 0 5 509 1 243 1 693 1 376 1 448 1
222 0 5 499 1 167 1 780 1 226 1 497 1
223 0 5 114 1 598 1 118 1 81 1 641 1
224 0 5 647 1 112 1 239 1 613 1 195 1
225 0 5 307 1 674 1 558 1 73 1 305 1
226 0 5 549 1 629 1 89 1 497 1 335 1
227 0 5 436 1 690 1 462 1 359 1 32 1
228 0 5 17 1 164 1 345 1 182 1 407 1
229 0 5 669 1 304 1 388 1 72 1 113 1
230 0 5 122 1 107 1 434 1 478 1 19 1
231 0 5 494 1 622 1 242 1 856 1 346 1
232 0 5 202 1 54 1 336 1 632 1 719 1
233 0 5 66 1 193 1 372 1 563 1 765 1
234 0 5 759 1 495 1 249 1 363 1 649 1
235 0 5 430 1 594 1 391 1 791 1 455 1
236 0 5 745 1 148 1 508 1 39 1 559 1
237 0 5 71 1 557 1 387 1 287 1 699 1
238 0 5 160 1 90 1 879 1 141 1 547 1
239 0 5 647 1 57 1 224 1 654 1 195 1
240 0 5 488 1 665 1 420 1 160 1 110 1
241 0 5 668 1 671 1 293 1 43 1 836 1
242 0 5 622 1 856 1 231 1 361 1 494 1
243 0 5 737 1 221 1 376 1 509 1 156 1
244 0 5 523 1 220 1 808 1 180 1 269 1
245 0 5 26 1 618 1 80 1 827 1 178 1
246 0 5 812 1 754 1 390 1 141 1 171 1
247 0 5 374 1 612 1 768 1 68 1 827 1
248 0 5 888 1 782 1 687 1 148 1 576 1
249 0 5 293 1 603 1 234 1 363 1 601 1
250 0 5 742 1 20 1 646 1 257 1 727 1
251 0 5 567 1 604 1 637 1 726 1 500 1
252 0 5 757 1 279 1 681 1 170 1 77 1
253 0 5 571 1 477 1 467 1 755 1 516 1
254 0 5 147 1 66 1 563 1 352 1 143 1
255 0 5 35 1 579 1 555 1 333 1 840 1
256 0 5 564 1 648 1 9 1 69 1 732 1
257 0 5 727 1 731 1 646 1 742 1 250 1
258 0 5 740 1 339 1 276 1 352 1 66 1
259 0 5 625 1 53 1 623 1 437 1 711 1
260 0 5 423 1 476 1 771 1 424 1 377 1
261 0 5 643 1 543 1 530 1 340 1 199 1
262 0 5 33 1 691 1 749 1 166 1 762 1
263 0 5 590 1 534 1 115 1 184 1 639 1
264 0 5 446 1 287 1 699 1 350 1 483 1
265 0 5 739 1 726 1 362 1 500 1 793 1
266 0 5 589 1 872 1 461 1 351 1 753 1
267 0 5 22 1 522 1 756 1 206 1 312 1
268 0 5 271 1 763 1 369 1 140 1 707 1
269 0 5 822 1 410 1 180 1 781 1 88 1
270 0 5 493 1 692 1 64 1 18 1 481 1
271 0 5 268 1 216 1 641 1 140 1 142 1
272 0 5 300 1 772 1 89 1 678 1 626 1
273 0 5 823 1 100 1 65 1 718 1 86 1
274 0 5 299 1 583 1 475 1 297 1 651 1
275 0 5 789 1 97 1 773 1 492 1 84 1
276 0 5 339 1 177 1 740 1 192 1 258 1
277 0 5 634 1 489 1 474 1 487 1 457 1
278 0 5 369 1 199 1 340 1 707 1 530 1
279 0 5 252 1 77 1 681 1 132 1 757 1
280 0 5 486 1 871 1 390 1 793 1 265 1
281 0 5 452 1 438 1 191 1 874 1 814 1
282 0 5 617 1 756 1 22 1 58 1 522 1
283 0 5 857 1 648 1 124 1 69 1 732 1
284 0 5 318 1 187 1 296 1 191 1 730 1
285 0 5 771 1 638 1 752 1 685 1 377 1
286 0 5 411 1 198 1 736 1 395 1 322 1
287 0 5 699 1 387 1 446 1 826 1 17 1
288 0 5 883 1 470 1 655 1 471 1 152 1
289 0 5 392 1 886 1 734 1 157 1 98 1
290 0 5 607 1 463 1 334 1 429 1 325 1
291 0 5 58 1 803 1 606 1 733 1 208 1
292 0 5 130 1 731 1 352 1 108 1 257 1
293 0 5 241 1 249 1 836 1 603 1 671 1
294 0 5 787 1 5 1 330 1 609 1 894 1
295 0 5 623 1 442 1 459 1 817 1 78 1
296 0 5 318 1 284 1 187 1 191 1 666 1
297 0 5 778 1 378 1 503 1 811 1 583 1
298 0 5 548 1 351 1 461 1 539 1 589 1
299 0 5 583 1 274 1 475 1 297 1 651 1
300 0 5 272 1 678 1 772 1 626 1 89 1
301 0 5 656 1 638 1 597 1 866 1 191 1
302 0 5 465 1 370 1 311 1 94 1 520 1
303 0 5 820 1 626 1 619 1 300 1 678 1
304 0 5 669 1 229 1 72 1 388 1 881 1
305 0 5 558 1 225 1 375 1 307 1 73 1
306 0 5 51 1 146 1 784 1 744 1 485 1
307 0 5 225 1 674 1 73 1 558 1 709 1
308 0 5 330 1 797 1 196 1 68 1 5 1
309 0 5 181 1 349 1 532 1 835 1 813 1
310 0 5 328 1 585 1 490 1 111 1 93 1
311 0 5 421 1 373 1 502 1 117 1 17 1
312 0 5 522 1 584 1 34 1 267 1 322 1
313 0 5 405 1 201 1 24 1 174 1 397 1
314 0 5 491 1 683 1 183 1 783 1 99 1
315 0 5 409 1 534 1 635 1 176 1 818 1
316 0 5 557 1 448 1 693 1 71 1 125 1
317 0 5 765 1 809 1 458 1 670 1 372 1
318 0 5 137 1 666 1 296 1 284 1 402 1
319 0 5 538 1 324 1 394 1 889 1 832 1
320 0 5 505 1 805 1 652 1 872 1 753 1
321 0 5 383 1 747 1 785 1 479 1 510 1
322 0 5 584 1 34 1 736 1 211 1 411 1
323 0 5 471 1 762 1 480 1 749 1 33 1
324 0 5 538 1 319 1 889 1 394 1 431 1
325 0 5 361 1 463 1 242 1 429 1 290 1
326 0 5 575 1 586 1 895 1 197 1 593 1
327 0 5 190 1 661 1 720 1 525 1 165 1
328 0 5 310 1 490 1 585 1 678 1 619 1
329 0 5 396 1 444 1 439 1 630 1 80 1
330 0 5 308 1 5 1 294 1 196 1 787 1
331 0 5 473 1 546 1 663 1 403 1 824 1
332 0 5 126 1 846 1 356 1 568 1 870 1
333 0 5 579 1 717 1 35 1 408 1 344 1
334 0 5 290 1 545 1 429 1 398 1 607 1
335 0 5 774 1 629 1 549 1 89 1 552 1
336 0 5 719 1 67 1 232 1 184 1 675 1
337 0 5 187 1 672 1 553 1 135 1 868 1
338 0 5 705 1 384 1 389 1 897 1 898 1
339 0 5 276 1 740 1 258 1 177 1 352 1
340 0 5 199 1 543 1 278 1 261 1 643 1
341 0 5 187 1 318 1 218 1 672 1 337 1
342 0 5 855 1 704 1 646 1 464 1 512 1
343 0 5 673 1 713 1 153 1 63 1 611 1
344 0 5 776 1 406 1 333 1 162 1 35 1
345 0 5 164 1 407 1 228 1 182 1 210 1
346 0 5 472 1 494 1 839 1 544 1 231 1
347 0 5 244 1 304 1 735 1 669 1 388 1
348 0 5 859 1 489 1 474 1 487 1 60 1
349 0 5 181 1 445 1 309 1 835 1 121 1
350 0 5 483 1 761 1 368 1 402 1 502 1
351 0 5 461 1 298 1 589 1 548 1 539 1
352 0 5 108 1 292 1 147 1 339 1 254 1
353 0 5 24 1 729 1 104 1 180 1 222 1
354 0 5 48 1 834 1 843 1 363 1 215 1
355 0 5 109 1 581 1 617 1 458 1 282 1
356 0 5 846 1 870 1 332 1 435 1 577 1
357 0 5 702 1 741 1 426 1 61 1 42 1
358 0 5 56 1 573 1 537 1 189 1 29 1
359 0 5 690 1 32 1 227 1 893 1 436 1
360 0 5 150 1 388 1 113 1 582 1 819 1
361 0 5 325 1 102 1 242 1 494 1 463 1
362 0 5 171 1 739 1 265 1 21 1 726 1
363 0 5 215 1 48 1 354 1 249 1 843 1
364 0 5 399 1 711 1 605 1 53 1 77 1
365 0 5 386 1 385 1 850 1 55 1 755 1
366 0 5 161 1 662 1 515 1 520 1 370 1
367 0 5 219 1 460 1 158 1 411 1 198 1
368 0 5 49 1 350 1 441 1 644 1 866 1
369 0 5 268 1 278 1 763 1 50 1 707 1
370 0 5 520 1 302 1 366 1 465 1 662 1
371 0 5 587 1 427 1 213 1 418 1 128 1
372 0 5 193 1 765 1 591 1 233 1 809 1
373 0 5 502 1 311 1 421 1 483 1 761 1
374 0 5 768 1 247 1 827 1 128 1 612 1
375 0 5 506 1 558 1 305 1 91 1 677 1
376 0 5 156 1 737 1 243 1 795 1 221 1
377 0 5 476 1 771 1 260 1 285 1 685 1
378 0 5 778 1 783 1 811 1 297 1 503 1
379 0 5 779 1 680 1 601 1 616 1 603 1
380 0 5 207 1 662 1 520 1 759 1 370 1
381 0 5 55 1 468 1 755 1 467 1 385 1
382 0 5 720 1 561 1 165 1 572 1 391 1
383 0 5 785 1 321 1 747 1 510 1 479 1
384 0 5 389 1 705 1 338 1 897 1 898 1
385 0 5 365 1 386 1 755 1 55 1 571 1
386 0 5 365 1 385 1 55 1 755 1 381 1
387 0 5 287 1 699 1 826 1 237 1 182 1
388 0 5 113 1 229 1 360 1 150 1 669 1
389 0 5 611 1 384 1 930 1 903 1 897 1
390 0 5 280 1 486 1 246 1 871 1 812 1
391 0 5 594 1 235 1 430 1 791 1 165 1
392 0 5 289 1 886 1 734 1 157 1 98 1
393 0 5 173 1 96 1 50 1 142 1 847 1
394 0 5 319 1 538 1 889 1 324 1 869 1
395 0 5 198 1 286 1 428 1 411 1 632 1
396 0 5 329 1 444 1 439 1 892 1 129 1
397 0 5 684 1 875 1 201 1 653 1 863 1
398 0 5 878 1 600 1 545 1 834 1 334 1
399 0 5 364 1 711 1 77 1 742 1 250 1
400 0 5 844 1 440 1 760 1 667 1 712 1
401 0 5 154 1 532 1 859 1 136 1 487 1
402 0 5 730 1 318 1 350 1 49 1 373 1
403 0 5 456 1 433 1 331 1 123 1 663 1
404 0 5 633 1 642 1 777 1 746 1 862 1
405 0 5 313 1 201 1 174 1 99 1 397 1
406 0 5 776 1 443 1 344 1 829 1 710 1
407 0 5 345 1 164 1 743 1 887 1 210 1
408 0 5 717 1 333 1 555 1 204 1 579 1
409 0 5 315 1 534 1 635 1 263 1 818 1
410 0 5 781 1 269 1 88 1 43 1 523 1
411 0 5 286 1 198 1 367 1 322 1 736 1
412 0 5 679 1 204 1 529 1 550 1 419 1
413 0 5 892 1 16 1 59 1 129 1 213 1
414 0 5 143 1 147 1 138 1 842 1 724 1
415 0 5 848 1 98 1 150 1 388 1 360 1
416 0 5 716 1 698 1 801 1 566 1 729 1
417 0 5 102 1 767 1 494 1 839 1 346 1
418 0 5 128 1 587 1 787 1 371 1 768 1
419 0 5 577 1 554 1 550 1 412 1 204 1
420 0 5 879 1 665 1 240 1 479 1 547 1
421 0 5 502 1 311 1 17 1 373 1 761 1
422 0 5 730 1 3 1 373 1 117 1 527 1
423 0 5 260 1 424 1 496 1 771 1 476 1
424 0 5 496 1 423 1 260 1 861 1 771 1
425 0 5 497 1 552 1 653 1 499 1 629 1
426 0 5 61 1 702 1 357 1 179 1 797 1
427 0 5 213 1 371 1 587 1 128 1 418 1
428 0 5 632 1 395 1 232 1 581 1 202 1
429 0 5 463 1 334 1 325 1 242 1 290 1
430 0 5 235 1 594 1 791 1 391 1 455 1
431 0 5 440 1 28 1 324 1 511 1 44 1
432 0 5 214 1 665 1 645 1 501 1 753 1
433 0 5 456 1 123 1 663 1 403 1 517 1
434 0 5 122 1 230 1 19 1 107 1 185 1
435 0 5 828 1 610 1 356 1 870 1 715 1
436 0 5 227 1 462 1 690 1 614 1 32 1
437 0 5 459 1 155 1 740 1 192 1 177 1
438 0 5 814 1 541 1 452 1 101 1 281 1
439 0 5 444 1 329 1 396 1 860 1 80 1
440 0 5 431 1 400 1 844 1 28 1 511 1
441 0 5 644 1 95 1 837 1 602 1 446 1
442 0 5 536 1 295 1 818 1 623 1 83 1
443 0 5 406 1 476 1 260 1 423 1 717 1
444 0 5 396 1 329 1 439 1 453 1 860 1
445 0 5 181 1 121 1 79 1 349 1 120 1
446 0 5 644 1 264 1 441 1 761 1 483 1
447 0 5 880 1 794 1 3 1 689 1 688 1
448 0 5 316 1 693 1 557 1 221 1 163 1
449 0 5 838 1 592 1 714 1 689 1 149 1
450 0 5 110 1 488 1 240 1 567 1 21 1
451 0 5 652 1 122 1 540 1 478 1 230 1
452 0 5 281 1 101 1 438 1 814 1 191 1
453 0 5 860 1 129 1 59 1 16 1 439 1
454 0 5 708 1 478 1 884 1 519 1 595 1
455 0 5 884 1 595 1 708 1 430 1 454 1
456 0 5 433 1 123 1 403 1 663 1 517 1
457 0 5 730 1 200 1 556 1 518 1 384 1
458 0 5 542 1 581 1 317 1 670 1 109 1
459 0 5 295 1 437 1 623 1 817 1 155 1
460 0 5 219 1 367 1 851 1 198 1 411 1
461 0 5 351 1 589 1 298 1 548 1 266 1
462 0 5 436 1 227 1 614 1 664 1 690 1
463 0 5 429 1 325 1 290 1 607 1 361 1
464 0 5 704 1 342 1 512 1 855 1 833 1
465 0 5 94 1 302 1 370 1 520 1 366 1
466 0 5 813 1 835 1 758 1 806 1 100 1
467 0 5 755 1 477 1 571 1 253 1 55 1
468 0 5 381 1 55 1 467 1 755 1 477 1
469 0 5 732 1 758 1 105 1 806 1 531 1
470 0 5 288 1 655 1 883 1 841 1 152 1
471 0 5 480 1 323 1 883 1 762 1 749 1
472 0 5 346 1 544 1 857 1 69 1 231 1
473 0 5 546 1 331 1 824 1 663 1 831 1
474 0 5 60 1 338 1 384 1 489 1 348 1
475 0 5 274 1 583 1 299 1 519 1 703 1
476 0 5 377 1 260 1 423 1 771 1 443 1
477 0 5 467 1 253 1 571 1 755 1 468 1
478 0 5 454 1 708 1 230 1 451 1 122 1
479 0 5 321 1 890 1 420 1 879 1 547 1
480 0 5 471 1 323 1 883 1 762 1 749 1
481 0 5 580 1 18 1 493 1 679 1 529 1
482 0 5 748 1 19 1 185 1 98 1 848 1
483 0 5 761 1 350 1 502 1 373 1 446 1
484 0 5 168 1 823 1 175 1 273 1 775 1
485 0 5 51 1 389 1 197 1 895 1 744 1
486 0 5 280 1 871 1 390 1 793 1 849 1
487 0 5 489 1 634 1 136 1 277 1 348 1
488 0 5 240 1 450 1 160 1 110 1 238 1
489 0 5 277 1 60 1 338 1 384 1 474 1
490 0 5 310 1 328 1 585 1 111 1 678 1
491 0 5 314 1 783 1 811 1 378 1 778 1
492 0 5 97 1 535 1 275 1 106 1 25 1
493 0 5 270 1 692 1 64 1 481 1 18 1
494 0 5 102 1 231 1 346 1 417 1 361 1
495 0 5 85 1 649 1 234 1 887 1 507 1
496 0 5 424 1 861 1 423 1 260 1 771 1
497 0 5 425 1 499 1 549 1 629 1 226 1
498 0 5 565 1 42 1 741 1 854 1 93 1
499 0 5 497 1 653 1 425 1 222 1 875 1
500 0 5 726 1 637 1 265 1 739 1 793 1
501 0 5 753 1 214 1 872 1 805 1 505 1
502 0 5 373 1 421 1 761 1 483 1 311 1
503 0 5 297 1 583 1 378 1 778 1 783 1
504 0 5 664 1 682 1 614 1 47 1 12 1
505 0 5 805 1 320 1 872 1 753 1 501 1
506 0 5 91 1 375 1 558 1 305 1 312 1
507 0 5 210 1 515 1 649 1 161 1 887 1
508 0 5 559 1 576 1 745 1 236 1 148 1
509 0 5 221 1 243 1 693 1 869 1 376 1
510 0 5 819 1 582 1 383 1 785 1 321 1
511 0 5 44 1 28 1 621 1 431 1 440 1
512 0 5 855 1 704 1 130 1 464 1 342 1
513 0 5 840 1 570 1 706 1 723 1 865 1
514 0 5 88 1 781 1 410 1 624 1 671 1
515 0 5 161 1 366 1 662 1 507 1 520 1
516 0 5 697 1 850 1 571 1 574 1 365 1
517 0 5 661 1 663 1 123 1 433 1 327 1
518 0 5 457 1 794 1 136 1 447 1 880 1
519 0 5 703 1 595 1 686 1 475 1 454 1
520 0 5 370 1 366 1 662 1 302 1 465 1
521 0 5 705 1 766 1 120 1 384 1 338 1
522 0 5 312 1 267 1 22 1 756 1 584 1
523 0 5 220 1 808 1 244 1 410 1 269 1
524 0 5 770 1 799 1 172 1 75 1 76 1
525 0 5 190 1 123 1 327 1 517 1 661 1
526 0 5 591 1 193 1 372 1 775 1 608 1
527 0 5 730 1 318 1 117 1 422 1 103 1
528 0 5 863 1 92 1 552 1 790 1 684 1
529 0 5 679 1 723 1 412 1 555 1 580 1
530 0 5 707 1 261 1 763 1 643 1 278 1
531 0 5 732 1 806 1 532 1 758 1 469 1
532 0 5 806 1 309 1 531 1 401 1 349 1
533 0 5 126 1 15 1 70 1 332 1 796 1
534 0 5 263 1 409 1 635 1 590 1 315 1
535 0 5 492 1 25 1 199 1 173 1 340 1
536 0 5 442 1 596 1 83 1 660 1 605 1
537 0 5 189 1 41 1 358 1 833 1 464 1
538 0 5 319 1 324 1 394 1 889 1 431 1
539 0 5 298 1 151 1 636 1 548 1 351 1
540 0 5 769 1 615 1 451 1 652 1 320 1
541 0 5 438 1 814 1 640 1 861 1 101 1
542 0 5 581 1 458 1 670 1 876 1 109 1
543 0 5 643 1 261 1 340 1 199 1 530 1
544 0 5 346 1 472 1 186 1 845 1 205 1
545 0 5 834 1 119 1 398 1 334 1 878 1
546 0 5 473 1 331 1 824 1 831 1 663 1
547 0 5 879 1 890 1 141 1 238 1 160 1
548 0 5 298 1 351 1 461 1 539 1 589 1
549 0 5 629 1 226 1 497 1 335 1 89 1
550 0 5 554 1 419 1 204 1 577 1 846 1
551 0 5 654 1 37 1 57 1 586 1 575 1
552 0 5 528 1 425 1 790 1 774 1 863 1
553 0 5 135 1 746 1 672 1 633 1 725 1
554 0 5 550 1 419 1 577 1 846 1 568 1
555 0 5 255 1 579 1 35 1 723 1 408 1
556 0 5 318 1 730 1 200 1 902 1 897 1
557 0 5 71 1 237 1 316 1 125 1 448 1
558 0 5 305 1 225 1 375 1 307 1 506 1
559 0 5 508 1 576 1 865 1 745 1 236 1
560 0 5 700 1 61 1 426 1 111 1 179 1
561 0 5 572 1 382 1 503 1 720 1 165 1
562 0 5 713 1 153 1 721 1 116 1 51 1
563 0 5 86 1 66 1 233 1 254 1 775 1
564 0 5 256 1 9 1 764 1 807 1 648 1
565 0 5 498 1 42 1 741 1 357 1 854 1
566 0 5 716 1 698 1 416 1 729 1 734 1
567 0 5 251 1 604 1 450 1 628 1 841 1
568 0 5 717 1 332 1 204 1 126 1 846 1
569 0 5 695 1 650 1 203 1 131 1 30 1
570 0 5 706 1 513 1 865 1 723 1 840 1
571 0 5 253 1 467 1 477 1 755 1 516 1
572 0 5 561 1 720 1 382 1 503 1 165 1
573 0 5 620 1 384 1 358 1 338 1 705 1
574 0 5 36 1 697 1 850 1 516 1 571 1
575 0 5 326 1 586 1 37 1 895 1 197 1
576 0 5 559 1 508 1 865 1 570 1 888 1
577 0 5 419 1 554 1 846 1 435 1 550 1
578 0 5 73 1 709 1 849 1 8 1 307 1
579 0 5 35 1 255 1 333 1 555 1 408 1
580 0 5 481 1 679 1 529 1 493 1 412 1
581 0 5 542 1 458 1 109 1 355 1 632 1
582 0 5 113 1 819 1 360 1 150 1 510 1
583 0 5 299 1 274 1 297 1 475 1 503 1
584 0 5 34 1 322 1 312 1 736 1 522 1
585 0 5 111 1 310 1 328 1 93 1 490 1
586 0 5 575 1 37 1 326 1 551 1 895 1
587 0 5 371 1 418 1 427 1 213 1 128 1
588 0 5 166 1 676 1 691 1 110 1 645 1
589 0 5 461 1 351 1 266 1 298 1 548 1
590 0 5 115 1 635 1 263 1 534 1 639 1
591 0 5 526 1 809 1 372 1 193 1 765 1
592 0 5 838 1 449 1 714 1 689 1 688 1
593 0 5 197 1 895 1 326 1 485 1 575 1
594 0 5 391 1 235 1 430 1 791 1 165 1
595 0 5 519 1 884 1 455 1 454 1 708 1
596 0 5 536 1 605 1 660 1 53 1 364 1
597 0 5 191 1 301 1 874 1 281 1 866 1
598 0 5 815 1 81 1 223 1 641 1 6 1
599 0 5 733 1 608 1 526 1 591 1 31 1
600 0 5 878 1 398 1 864 1 858 1 834 1
601 0 5 616 1 603 1 379 1 779 1 249 1
602 0 5 837 1 685 1 95 1 752 1 441 1
603 0 5 601 1 293 1 836 1 249 1 616 1
604 0 5 567 1 867 1 628 1 251 1 841 1
605 0 5 613 1 596 1 364 1 195 1 132 1
606 0 5 58 1 291 1 206 1 756 1 208 1
607 0 5 290 1 334 1 463 1 40 1 429 1
608 0 5 694 1 599 1 526 1 168 1 775 1
609 0 5 854 1 894 1 787 1 5 1 294 1
610 0 5 786 1 828 1 435 1 825 1 70 1
611 0 5 389 1 902 1 911 1 910 1 897 1
612 0 5 68 1 247 1 618 1 374 1 26 1
613 0 5 195 1 605 1 224 1 132 1 112 1
614 0 5 664 1 504 1 462 1 682 1 436 1
615 0 5 769 1 791 1 540 1 430 1 728 1
616 0 5 601 1 379 1 249 1 603 1 779 1
617 0 5 282 1 756 1 355 1 58 1 22 1
618 0 5 26 1 245 1 612 1 827 1 178 1
619 0 5 303 1 93 1 820 1 328 1 678 1
620 0 5 29 1 573 1 833 1 56 1 358 1
621 0 5 44 1 511 1 28 1 431 1 779 1
622 0 5 242 1 856 1 231 1 807 1 494 1
623 0 5 259 1 295 1 53 1 459 1 625 1
624 0 5 822 1 780 1 700 1 514 1 88 1
625 0 5 259 1 53 1 623 1 711 1 364 1
626 0 5 820 1 303 1 772 1 300 1 272 1
627 0 5 46 1 858 1 657 1 11 1 207 1
628 0 5 658 1 810 1 604 1 867 1 788 1
629 0 5 549 1 335 1 226 1 497 1 89 1
630 0 5 687 1 64 1 80 1 439 1 329 1
631 0 5 735 1 738 1 145 1 72 1 881 1
632 0 5 428 1 202 1 232 1 542 1 581 1
633 0 5 404 1 135 1 38 1 746 1 553 1
634 0 5 277 1 338 1 489 1 487 1 136 1
635 0 5 590 1 534 1 315 1 176 1 115 1
636 0 5 151 1 676 1 539 1 645 1 166 1
637 0 5 726 1 500 1 251 1 739 1 265 1
638 0 5 301 1 656 1 285 1 752 1 597 1
639 0 5 184 1 115 1 263 1 675 1 590 1
640 0 5 541 1 38 1 861 1 814 1 101 1
641 0 5 216 1 140 1 271 1 598 1 223 1
642 0 5 862 1 746 1 404 1 212 1 633 1
643 0 5 261 1 543 1 530 1 340 1 199 1
644 0 5 441 1 446 1 95 1 837 1 368 1
645 0 5 676 1 266 1 539 1 636 1 351 1
646 0 5 20 1 855 1 342 1 257 1 250 1
647 0 5 239 1 224 1 57 1 112 1 195 1
648 0 5 256 1 69 1 857 1 283 1 732 1
649 0 5 210 1 887 1 495 1 507 1 85 1
650 0 5 569 1 203 1 845 1 695 1 205 1
651 0 5 701 1 801 1 299 1 74 1 274 1
652 0 5 122 1 434 1 451 1 230 1 320 1
653 0 5 875 1 397 1 684 1 499 1 425 1
654 0 5 551 1 57 1 239 1 37 1 132 1
655 0 5 470 1 288 1 152 1 883 1 867 1
656 0 5 301 1 638 1 866 1 752 1 597 1
657 0 5 46 1 627 1 858 1 11 1 764 1
658 0 5 628 1 867 1 810 1 788 1 604 1
659 0 5 105 1 175 1 823 1 124 1 169 1
660 0 5 112 1 176 1 83 1 596 1 536 1
661 0 5 517 1 327 1 663 1 525 1 123 1
662 0 5 161 1 366 1 515 1 520 1 370 1
663 0 5 517 1 433 1 331 1 661 1 456 1
664 0 5 504 1 682 1 614 1 47 1 12 1
665 0 5 420 1 240 1 879 1 432 1 488 1
666 0 5 318 1 730 1 191 1 874 1 187 1
667 0 5 712 1 760 1 844 1 400 1 179 1
668 0 5 43 1 241 1 671 1 410 1 781 1
669 0 5 304 1 229 1 72 1 388 1 881 1
670 0 5 155 1 458 1 317 1 765 1 542 1
671 0 5 836 1 241 1 792 1 43 1 293 1
672 0 5 553 1 337 1 187 1 218 1 746 1
673 0 5 343 1 852 1 713 1 81 1 815 1
674 0 5 307 1 225 1 73 1 578 1 709 1
675 0 5 133 1 851 1 67 1 639 1 184 1
676 0 5 645 1 636 1 166 1 588 1 539 1
677 0 5 14 1 159 1 375 1 75 1 305 1
678 0 5 300 1 272 1 328 1 490 1 626 1
679 0 5 529 1 412 1 580 1 481 1 723 1
680 0 5 779 1 379 1 243 1 869 1 616 1
681 0 5 757 1 279 1 252 1 20 1 646 1
682 0 5 664 1 504 1 47 1 614 1 12 1
683 0 5 183 1 314 1 92 1 491 1 99 1
684 0 5 397 1 875 1 653 1 201 1 863 1
685 0 5 752 1 602 1 285 1 837 1 194 1
686 0 5 703 1 891 1 519 1 475 1 454 1
687 0 5 782 1 248 1 630 1 888 1 178 1
688 0 5 714 1 689 1 880 1 447 1 794 1
689 0 5 688 1 880 1 447 1 838 1 794 1
690 0 5 359 1 227 1 32 1 436 1 893 1
691 0 5 262 1 166 1 33 1 588 1 676 1
692 0 5 270 1 64 1 493 1 630 1 18 1
693 0 5 163 1 448 1 221 1 316 1 509 1
694 0 5 608 1 168 1 30 1 695 1 31 1
695 0 5 569 1 30 1 203 1 31 1 650 1
696 0 5 873 1 795 1 743 1 156 1 448 1
697 0 5 850 1 516 1 36 1 574 1 365 1
698 0 5 716 1 416 1 566 1 734 1 801 1
699 0 5 287 1 387 1 826 1 17 1 446 1
700 0 5 780 1 624 1 167 1 560 1 514 1
701 0 5 801 1 74 1 651 1 416 1 698 1
702 0 5 357 1 61 1 426 1 42 1 741 1
703 0 5 686 1 519 1 891 1 475 1 595 1
704 0 5 464 1 512 1 342 1 855 1 681 1
705 0 5 521 1 10 1 384 1 338 1 907 1
706 0 5 570 1 513 1 723 1 840 1 865 1
707 0 5 530 1 763 1 278 1 369 1 268 1
708 0 5 454 1 884 1 478 1 455 1 595 1
709 0 5 73 1 578 1 8 1 307 1 225 1
710 0 5 829 1 882 1 125 1 476 1 406 1
711 0 5 192 1 399 1 742 1 364 1 177 1
712 0 5 667 1 760 1 844 1 179 1 797 1
713 0 5 562 1 153 1 63 1 721 1 116 1
714 0 5 688 1 838 1 9 1 592 1 689 1
715 0 5 15 1 870 1 70 1 828 1 435 1
716 0 5 566 1 698 1 416 1 801 1 734 1
717 0 5 408 1 333 1 568 1 443 1 555 1
718 0 5 775 1 86 1 273 1 254 1 823 1
719 0 5 67 1 336 1 232 1 133 1 851 1
720 0 5 165 1 382 1 327 1 572 1 190 1
721 0 5 713 1 116 1 562 1 153 1 611 1
722 0 5 51 1 593 1 188 1 146 1 306 1
723 0 5 706 1 529 1 555 1 513 1 570 1
724 0 5 138 1 414 1 842 1 41 1 189 1
725 0 5 187 1 135 1 553 1 452 1 296 1
726 0 5 637 1 500 1 739 1 265 1 251 1
727 0 5 257 1 742 1 108 1 731 1 250 1
728 0 5 791 1 594 1 391 1 165 1 615 1
729 0 5 24 1 353 1 566 1 416 1 716 1
730 0 5 137 1 527 1 422 1 402 1 3 1
731 0 5 108 1 727 1 257 1 292 1 130 1
732 0 5 531 1 469 1 758 1 806 1 283 1
733 0 5 599 1 803 1 291 1 87 1 608 1
734 0 5 157 1 392 1 698 1 886 1 289 1
735 0 5 631 1 244 1 347 1 738 1 145 1
736 0 5 34 1 322 1 584 1 286 1 411 1
737 0 5 376 1 156 1 243 1 795 1 85 1
738 0 5 145 1 631 1 27 1 735 1 843 1
739 0 5 362 1 726 1 265 1 171 1 637 1
740 0 5 258 1 339 1 276 1 437 1 233 1
741 0 5 42 1 565 1 357 1 498 1 702 1
742 0 5 250 1 727 1 711 1 257 1 399 1
743 0 5 407 1 873 1 696 1 887 1 182 1
744 0 5 784 1 139 1 389 1 51 1 611 1
745 0 5 236 1 148 1 508 1 559 1 39 1
746 0 5 553 1 642 1 633 1 404 1 862 1
747 0 5 785 1 383 1 321 1 510 1 432 1
748 0 5 482 1 150 1 185 1 819 1 19 1
749 0 5 762 1 33 1 323 1 480 1 471 1
750 0 5 194 1 23 1 882 1 125 1 685 1
751 0 5 832 1 62 1 39 1 889 1 869 1
752 0 5 685 1 602 1 285 1 638 1 656 1
753 0 5 501 1 872 1 214 1 805 1 505 1
754 0 5 141 1 812 1 246 1 767 1 547 1
755 0 5 467 1 385 1 55 1 571 1 381 1
756 0 5 22 1 267 1 206 1 606 1 58 1
757 0 5 252 1 170 1 681 1 833 1 279 1
758 0 5 806 1 469 1 531 1 105 1 466 1
759 0 5 234 1 380 1 207 1 363 1 520 1
760 0 5 667 1 712 1 844 1 400 1 440 1
761 0 5 483 1 502 1 350 1 446 1 421 1
762 0 5 323 1 749 1 33 1 480 1 471 1
763 0 5 707 1 268 1 530 1 369 1 140 1
764 0 5 82 1 657 1 9 1 449 1 838 1
765 0 5 317 1 809 1 372 1 193 1 670 1
766 0 5 120 1 521 1 10 1 181 1 79 1
767 0 5 839 1 417 1 52 1 346 1 102 1
768 0 5 374 1 827 1 128 1 247 1 618 1
769 0 5 615 1 540 1 791 1 728 1 451 1
770 0 5 799 1 524 1 172 1 793 1 75 1
771 0 5 260 1 285 1 377 1 423 1 476 1
772 0 5 89 1 272 1 626 1 300 1 335 1
773 0 5 275 1 789 1 84 1 144 1 97 1
774 0 5 335 1 790 1 552 1 629 1 626 1
775 0 5 86 1 718 1 563 1 526 1 168 1
776 0 5 344 1 406 1 829 1 443 1 162 1
777 0 5 404 1 796 1 38 1 633 1 70 1
778 0 5 378 1 783 1 811 1 297 1 503 1
779 0 5 379 1 680 1 601 1 616 1 621 1
780 0 5 167 1 700 1 624 1 222 1 226 1
781 0 5 410 1 88 1 43 1 269 1 514 1
782 0 5 248 1 888 1 687 1 39 1 178 1
783 0 5 378 1 778 1 811 1 491 1 297 1
784 0 5 744 1 306 1 146 1 51 1 900 1
785 0 5 747 1 383 1 321 1 510 1 501 1
786 0 5 610 1 825 1 84 1 828 1 800 1
787 0 5 294 1 418 1 609 1 128 1 5 1
788 0 5 76 1 658 1 152 1 172 1 810 1
789 0 5 275 1 773 1 84 1 144 1 97 1
790 0 5 774 1 552 1 820 1 528 1 335 1
791 0 5 728 1 594 1 430 1 615 1 391 1
792 0 5 836 1 671 1 7 1 514 1 45 1
793 0 5 871 1 265 1 500 1 486 1 280 1
794 0 5 447 1 518 1 880 1 527 1 689 1
795 0 5 85 1 873 1 156 1 696 1 376 1
796 0 5 70 1 777 1 825 1 862 1 212 1
797 0 5 179 1 308 1 196 1 426 1 357 1
798 0 5 821 1 830 1 79 1 10 1 474 1
799 0 5 770 1 524 1 172 1 793 1 75 1
800 0 5 144 1 4 1 84 1 212 1 786 1
801 0 5 701 1 416 1 698 1 651 1 716 1
802 0 5 159 1 91 1 158 1 211 1 677 1
803 0 5 291 1 733 1 87 1 58 1 208 1
804 0 5 131 1 87 1 208 1 31 1 390 1
805 0 5 505 1 320 1 753 1 501 1 872 1
806 0 5 758 1 531 1 532 1 813 1 466 1
807 0 5 856 1 864 1 82 1 622 1 429 1
808 0 5 220 1 523 1 244 1 735 1 410 1
809 0 5 317 1 765 1 591 1 372 1 193 1
810 0 5 628 1 658 1 172 1 788 1 500 1
811 0 5 778 1 378 1 783 1 297 1 491 1
812 0 5 246 1 754 1 390 1 141 1 171 1
813 0 5 466 1 835 1 806 1 349 1 758 1
814 0 5 438 1 541 1 101 1 452 1 281 1
815 0 5 81 1 598 1 852 1 6 1 223 1
816 0 5 54 1 885 1 78 1 202 1 818 1
817 0 5 876 1 78 1 295 1 459 1 202 1
818 0 5 83 1 885 1 176 1 442 1 816 1
819 0 5 582 1 510 1 360 1 150 1 113 1
820 0 5 303 1 626 1 619 1 790 1 300 1
821 0 5 798 1 79 1 181 1 830 1 445 1
822 0 5 269 1 624 1 180 1 88 1 410 1
823 0 5 273 1 175 1 484 1 100 1 659 1
824 0 5 546 1 473 1 831 1 331 1 893 1
825 0 5 4 1 786 1 796 1 212 1 610 1
826 0 5 387 1 182 1 699 1 287 1 164 1
827 0 5 768 1 374 1 245 1 128 1 618 1
828 0 5 435 1 610 1 715 1 786 1 870 1
829 0 5 710 1 125 1 882 1 406 1 776 1
830 0 5 10 1 798 1 60 1 705 1 821 1
831 0 5 893 1 824 1 12 1 546 1 473 1
832 0 5 889 1 751 1 62 1 394 1 319 1
833 0 5 170 1 56 1 757 1 464 1 681 1
834 0 5 545 1 217 1 119 1 878 1 354 1
835 0 5 813 1 466 1 349 1 181 1 309 1
836 0 5 792 1 671 1 293 1 603 1 7 1
837 0 5 95 1 441 1 602 1 644 1 685 1
838 0 5 592 1 449 1 714 1 689 1 688 1
839 0 5 767 1 52 1 346 1 417 1 544 1
840 0 5 513 1 570 1 255 1 865 1 162 1
841 0 5 867 1 604 1 470 1 655 1 567 1
842 0 5 138 1 143 1 414 1 724 1 121 1
843 0 5 27 1 215 1 119 1 48 1 354 1
844 0 5 760 1 400 1 440 1 712 1 667 1
845 0 5 650 1 186 1 203 1 544 1 205 1
846 0 5 356 1 332 1 577 1 554 1 568 1
847 0 5 96 1 393 1 173 1 50 1 142 1
848 0 5 98 1 415 1 482 1 289 1 886 1
849 0 5 877 1 8 1 578 1 709 1 73 1
850 0 5 697 1 516 1 36 1 574 1 365 1
851 0 5 133 1 675 1 460 1 67 1 719 1
852 0 5 815 1 6 1 81 1 673 1 598 1
853 0 5 326 1 170 1 56 1 833 1 139 1
854 0 5 609 1 894 1 498 1 565 1 741 1
855 0 5 342 1 512 1 646 1 704 1 464 1
856 0 5 622 1 242 1 807 1 231 1 82 1
857 0 5 69 1 283 1 648 1 472 1 124 1
858 0 5 46 1 627 1 657 1 217 1 878 1
859 0 5 348 1 489 1 487 1 401 1 474 1
860 0 5 453 1 439 1 80 1 444 1 129 1
861 0 5 496 1 541 1 424 1 640 1 814 1
862 0 5 642 1 212 1 404 1 746 1 796 1
863 0 5 528 1 92 1 684 1 552 1 875 1
864 0 5 82 1 807 1 600 1 764 1 878 1
865 0 5 576 1 570 1 513 1 162 1 559 1
866 0 5 49 1 301 1 656 1 368 1 597 1
867 0 5 658 1 604 1 841 1 628 1 655 1
868 0 5 218 1 144 1 672 1 800 1 337 1
869 0 5 394 1 751 1 889 1 509 1 319 1
870 0 5 715 1 15 1 356 1 435 1 332 1
871 0 5 280 1 486 1 793 1 390 1 265 1
872 0 5 753 1 266 1 505 1 214 1 501 1
873 0 5 696 1 795 1 743 1 887 1 407 1
874 0 5 281 1 191 1 597 1 666 1 866 1
875 0 5 653 1 684 1 397 1 201 1 863 1
876 0 5 78 1 817 1 542 1 202 1 632 1
877 0 5 849 1 578 1 674 1 208 1 709 1
878 0 5 600 1 398 1 834 1 217 1 545 1
879 0 5 420 1 547 1 238 1 160 1 890 1
880 0 5 447 1 689 1 688 1 794 1 3 1
881 0 5 72 1 145 1 669 1 229 1 304 1
882 0 5 125 1 710 1 750 1 23 1 829 1
883 0 5 288 1 470 1 480 1 471 1 655 1
884 0 5 455 1 708 1 595 1 454 1 519 1
885 0 5 816 1 54 1 818 1 78 1 202 1
886 0 5 392 1 289 1 157 1 734 1 134 1
887 0 5 649 1 407 1 873 1 210 1 743 1
888 0 5 248 1 782 1 148 1 39 1 576 1
889 0 5 832 1 394 1 319 1 324 1 538 1
890 0 5 547 1 102 1 417 1 879 1 479 1
891 0 5 686 1 703 1 519 1 74 1 134 1
892 0 5 413 1 129 1 16 1 59 1 396 1
893 0 5 831 1 359 1 690 1 12 1 32 1
894 0 5 5 1 854 1 609 1 196 1 741 1
895 0 5 197 1 326 1 593 1 575 1 485 1
896 0 5 910 1 914 1 913 1 912 1 903 1
897 0 5 910 1 914 1 913 1 912 1 903 1
898 0 5 910 1 914 1 913 1 912 1 903 1
899 0 5 910 1 914 1 913 1 912 1 903 1
900 0 5 910 1 914 1 913 1 912 1 903 1
901 0 5 910 1 914 1 913 1 912 1 903 1
902 0 5 910 1 914 1 913 1 912 1 903 1
903 0 5 910 1 914 1 913 1 912 1 903 1
904 0 5 910 1 914 1 913 1 912 1 903 1
905 0 5 910 1 914 1 913 1 912 1 903 1
906 0 5 910 1 914 1 913 1 912 1 903 1
907 0 5 910 1 914 1 913 1 912 1 903 1
908 0 5 910 1 914 1 913 1 912 1 903 1
909 0 5 910 1 914 1 913 1 912 1 903 1
910 0 5 910 1 914 1 913 1 912 1 903 1
911 0 5 910 1 914 1 913 1 912 1 903 1
912 0 5 910 1 914 1 913 1 912 1 903 1
913 0 5 910 1 914 1 913 1 912 1 903 1
914 0 5 910 1 914 1 913 1 912 1 903 1
915 0 5 910 1 914 1 913 1 912 1 903 1
916 0 5 910 1 914 1 913 1 912 1 903 1
917 0 5 910 1 914 1 913 1 912 1 903 1
918 0 5 910 1 914 1 913 1 912 1 903 1
919 0 5 910 1 914 1 913 1 912 1 903 1
920 0 5 910 1 914 1 913 1 912 1 903 1
921 0 5 910 1 914 1 913 1 912 1 903 1
922 0 5 910 1 914 1 913 1 912 1 903 1
923 0 5 910 1 914 1 913 1 912 1 903 1
924 0 5 910 1 914 1 913 1 912 1 903 1
925 0 5 910 1 914 1 913 1 912 1 903 1
926 0 5 910 1 914 1 913 1 912 1 903 1
927 0 5 910 1 914 1 913 1 912 1 903 1
928 0 5 910 1 914 1 913 1 912 1 903 1
929 0 5 910 1 914 1 913 1 912 1 903 1
930 0 5 910 1 914 1 913 1 912 1 903 1
931 0 5 910 1 914 1 913 1 912 1 903 1
-1
EOF
